c Arquivo convertido de cubic_400.txt
p edge 400 600
e 0 84
e 0 198
e 0 229
e 1 154
e 1 223
e 1 270
e 2 97
e 2 337
e 2 391
e 3 229
e 3 309
e 3 368
e 4 112
e 4 337
e 4 387
e 5 25
e 5 33
e 5 146
e 6 18
e 6 191
e 6 242
e 7 113
e 7 246
e 7 360
e 8 22
e 8 103
e 8 130
e 9 199
e 9 201
e 9 332
e 10 46
e 10 77
e 10 239
e 11 12
e 11 60
e 11 368
e 12 267
e 12 343
e 13 131
e 13 132
e 13 355
e 14 19
e 14 164
e 14 203
e 15 173
e 15 178
e 15 393
e 16 38
e 16 96
e 16 387
e 17 208
e 17 258
e 17 373
e 18 158
e 18 321
e 19 99
e 19 176
e 20 162
e 20 326
e 20 329
e 21 34
e 21 371
e 21 372
e 22 173
e 22 201
e 23 137
e 23 154
e 23 191
e 24 86
e 24 144
e 24 370
e 25 123
e 25 267
e 26 158
e 26 189
e 26 324
e 27 95
e 27 226
e 27 273
e 28 165
e 28 323
e 28 382
e 29 105
e 29 219
e 29 287
e 30 145
e 30 285
e 30 347
e 31 109
e 31 144
e 31 284
e 32 185
e 32 274
e 32 382
e 33 120
e 33 330
e 34 57
e 34 294
e 35 162
e 35 229
e 35 250
e 36 234
e 36 353
e 36 359
e 37 53
e 37 108
e 37 386
e 38 143
e 38 292
e 39 106
e 39 114
e 39 182
e 40 57
e 40 319
e 40 330
e 41 152
e 41 158
e 41 293
e 42 49
e 42 118
e 42 284
e 43 199
e 43 281
e 43 285
e 44 115
e 44 136
e 44 384
e 45 122
e 45 211
e 45 322
e 46 89
e 46 235
e 47 278
e 47 368
e 47 390
e 48 117
e 48 259
e 48 386
e 49 235
e 49 376
e 50 104
e 50 141
e 50 225
e 51 75
e 51 113
e 51 153
e 52 238
e 52 263
e 52 299
e 53 211
e 53 212
e 54 161
e 54 181
e 54 308
e 55 121
e 55 280
e 55 366
e 56 116
e 56 177
e 56 275
e 57 68
e 58 74
e 58 241
e 58 292
e 59 221
e 59 261
e 59 364
e 60 243
e 60 253
e 61 125
e 61 310
e 61 361
e 62 325
e 62 349
e 62 383
e 63 91
e 63 125
e 63 256
e 64 67
e 64 246
e 64 362
e 65 179
e 65 205
e 65 208
e 66 140
e 66 321
e 66 333
e 67 132
e 67 349
e 68 81
e 68 230
e 69 82
e 69 175
e 69 232
e 70 94
e 70 233
e 70 355
e 71 135
e 71 346
e 71 378
e 72 164
e 72 284
e 72 385
e 73 81
e 73 346
e 73 361
e 74 90
e 74 379
e 75 105
e 75 147
e 76 130
e 76 355
e 76 362
e 77 215
e 77 310
e 78 249
e 78 275
e 78 301
e 79 138
e 79 259
e 79 387
e 80 331
e 80 334
e 80 389
e 81 98
e 82 119
e 82 324
e 83 155
e 83 156
e 83 168
e 84 237
e 84 324
e 85 248
e 85 255
e 85 300
e 86 135
e 86 218
e 87 179
e 87 228
e 87 388
e 88 106
e 88 286
e 88 328
e 89 107
e 89 359
e 90 295
e 90 300
e 91 379
e 91 394
e 92 239
e 92 250
e 92 254
e 93 195
e 93 338
e 93 389
e 94 116
e 94 128
e 95 168
e 95 293
e 96 148
e 96 257
e 97 238
e 97 291
e 98 380
e 98 394
e 99 170
e 99 245
e 100 131
e 100 331
e 100 332
e 101 244
e 101 272
e 101 369
e 102 184
e 102 198
e 102 342
e 103 104
e 103 327
e 104 280
e 105 304
e 106 215
e 107 276
e 107 398
e 108 138
e 108 283
e 109 234
e 109 253
e 110 201
e 110 325
e 110 375
e 111 182
e 111 190
e 111 388
e 112 180
e 112 341
e 113 133
e 114 304
e 114 353
e 115 117
e 115 256
e 116 356
e 117 362
e 118 157
e 118 207
e 119 142
e 119 342
e 120 134
e 120 305
e 121 230
e 121 301
e 122 235
e 122 303
e 123 165
e 123 287
e 124 269
e 124 287
e 124 365
e 125 395
e 126 247
e 126 347
e 126 378
e 127 340
e 127 367
e 127 395
e 128 159
e 128 340
e 129 150
e 129 153
e 129 269
e 130 356
e 131 172
e 132 174
e 133 166
e 133 191
e 134 177
e 134 339
e 135 156
e 136 150
e 136 290
e 137 322
e 137 358
e 138 354
e 139 216
e 139 255
e 139 329
e 140 177
e 140 341
e 141 349
e 141 370
e 142 208
e 142 243
e 143 180
e 143 316
e 144 252
e 145 220
e 145 236
e 146 189
e 146 214
e 147 186
e 147 392
e 148 209
e 148 282
e 149 192
e 149 299
e 149 323
e 150 264
e 151 159
e 151 330
e 151 336
e 152 190
e 152 221
e 153 320
e 154 240
e 155 336
e 155 389
e 156 319
e 157 159
e 157 193
e 160 318
e 160 320
e 160 334
e 161 188
e 161 189
e 162 281
e 163 252
e 163 315
e 163 395
e 164 326
e 165 197
e 166 279
e 166 300
e 167 170
e 167 174
e 167 226
e 168 277
e 169 186
e 169 222
e 169 262
e 170 398
e 171 249
e 171 271
e 171 380
e 172 259
e 172 398
e 173 378
e 174 313
e 175 260
e 175 316
e 176 260
e 176 265
e 178 272
e 178 383
e 179 352
e 180 352
e 181 231
e 181 350
e 182 352
e 183 188
e 183 316
e 183 338
e 184 271
e 184 358
e 185 197
e 185 213
e 186 343
e 187 291
e 187 344
e 187 388
e 188 244
e 190 397
e 192 230
e 192 266
e 193 220
e 193 319
e 194 249
e 194 272
e 194 304
e 195 251
e 195 318
e 196 266
e 196 312
e 196 320
e 197 222
e 198 356
e 199 227
e 200 274
e 200 353
e 200 365
e 202 248
e 202 276
e 202 392
e 203 306
e 203 348
e 204 217
e 204 307
e 204 308
e 205 247
e 205 275
e 206 309
e 206 379
e 206 396
e 207 254
e 207 376
e 209 263
e 209 361
e 210 315
e 210 326
e 210 364
e 211 296
e 212 227
e 212 268
e 213 306
e 213 366
e 214 246
e 214 335
e 215 291
e 216 245
e 216 273
e 217 346
e 217 381
e 218 219
e 218 294
e 219 231
e 220 341
e 221 339
e 222 375
e 223 244
e 223 286
e 224 251
e 224 296
e 224 348
e 225 288
e 225 312
e 226 278
e 227 345
e 228 264
e 228 305
e 231 289
e 232 238
e 232 331
e 233 265
e 233 385
e 234 296
e 236 289
e 236 293
e 237 274
e 237 297
e 239 360
e 240 351
e 240 359
e 241 248
e 241 344
e 242 251
e 242 269
e 243 345
e 245 391
e 247 367
e 250 260
e 252 298
e 253 351
e 254 314
e 255 285
e 256 374
e 257 276
e 257 280
e 258 311
e 258 347
e 261 374
e 261 396
e 262 328
e 262 377
e 263 327
e 264 305
e 265 393
e 266 268
e 267 335
e 268 288
e 270 313
e 270 381
e 271 310
e 273 381
e 277 283
e 277 288
e 278 369
e 279 299
e 279 339
e 281 397
e 282 306
e 282 375
e 283 325
e 286 298
e 289 371
e 290 371
e 290 374
e 292 348
e 294 297
e 295 302
e 295 393
e 297 333
e 298 363
e 301 385
e 302 311
e 302 314
e 303 350
e 303 351
e 307 315
e 307 366
e 308 312
e 309 318
e 311 372
e 313 329
e 314 364
e 317 337
e 317 354
e 317 383
e 321 358
e 322 394
e 323 350
e 327 345
e 328 391
e 332 340
e 333 384
e 334 377
e 335 343
e 336 392
e 338 386
e 342 377
e 344 373
e 354 357
e 357 372
e 357 399
e 360 396
e 363 369
e 363 380
e 365 370
e 367 399
e 373 376
e 382 390
e 384 390
e 397 399
